Translating instance to solver...

Set parameter TimeLimit to value 28800
Gurobi Optimizer version 11.0.2 build v11.0.2rc0 (linux64 - "Ubuntu 22.04.4 LTS")

CPU model: Intel(R) Xeon(R) Gold 5120 CPU @ 2.20GHz, instruction set [SSE2|AVX|AVX2|AVX512]
Thread count: 28 physical cores, 56 logical processors, using up to 28 threads

Academic license 2463511 - for non-commercial use only - registered to lu___@cefet-rj.br
Optimize a model with 113275 rows, 53993 columns and 256388 nonzeros
Model fingerprint: 0x5999ccfb
Variable types: 1 continuous, 53992 integer (53920 binary)
Coefficient statistics:
  Matrix range     [1e+00, 1e+05]
  Objective range  [3e-01, 8e-01]
  Bounds range     [1e+00, 7e+01]
  RHS range        [1e+00, 9e+01]
Presolve removed 92572 rows and 45510 columns
Presolve time: 1.81s
Presolved: 20703 rows, 8483 columns, 59951 nonzeros
Variable types: 0 continuous, 8483 integer (8412 binary)
Found heuristic solution: objective 38.5123700

Root relaxation: objective 2.028109e+00, 2678 iterations, 0.20 seconds (0.25 work units)

    Nodes    |    Current Node    |     Objective Bounds      |     Work
 Expl Unexpl |  Obj  Depth IntInf | Incumbent    BestBd   Gap | It/Node Time

     0     0    2.02811    0  106   38.51237    2.02811  94.7%     -    2s
H    0     0                      37.1623700    2.02811  94.5%     -    2s
H    0     0                       7.0001470    2.02811  71.0%     -    3s
H    0     0                       3.3294550    2.12356  36.2%     -    3s
     0     0    2.12356    0  313    3.32946    2.12356  36.2%     -    3s
H    0     0                       2.5735640    2.12356  17.5%     -    4s
     0     0    2.12356    0  128    2.57356    2.12356  17.5%     -    4s
     0     0    2.12356    0  220    2.57356    2.12356  17.5%     -    4s
     0     0    2.12356    0  282    2.57356    2.12356  17.5%     -    5s
     0     0    2.12356    0   58    2.57356    2.12356  17.5%     -    8s
     0     0    2.12356    0  182    2.57356    2.12356  17.5%     -    9s
     0     0    2.12356    0  358    2.57356    2.12356  17.5%     -   11s
     0     0    2.12356    0  316    2.57356    2.12356  17.5%     -   11s
     0     0    2.14378    0  224    2.57356    2.14378  16.7%     -   13s
     0     0    2.14774    0  253    2.57356    2.14774  16.5%     -   14s
     0     0    2.16447    0  196    2.57356    2.16447  15.9%     -   17s
     0     0    2.16447    0  196    2.57356    2.16447  15.9%     -   19s
     0     0    2.16447    0  117    2.57356    2.16447  15.9%     -   22s
     0     0    2.16447    0  236    2.57356    2.16447  15.9%     -   24s
     0     0    2.16447    0  213    2.57356    2.16447  15.9%     -   24s
     0     0    2.16447    0  185    2.57356    2.16447  15.9%     -   25s
     0     0    2.16447    0  244    2.57356    2.16447  15.9%     -   26s
     0     0    2.16447    0   44    2.57356    2.16447  15.9%     -   27s
     0     0    2.16447    0  141    2.57356    2.16447  15.9%     -   28s
     0     0    2.16447    0  197    2.57356    2.16447  15.9%     -   30s
     0     0    2.16447    0   59    2.57356    2.16447  15.9%     -   31s
     0     0    2.17076    0  234    2.57356    2.17076  15.7%     -   34s
     0     0    2.17499    0  274    2.57356    2.17499  15.5%     -   36s
     0     0    2.17915    0  247    2.57356    2.17915  15.3%     -   37s
     0     0    2.17953    0  247    2.57356    2.17953  15.3%     -   37s
     0     2    2.17953    0  247    2.57356    2.17953  15.3%     -   39s
     1     5    2.17953    1  105    2.57356    2.17953  15.3%  3351   40s
    54    54    2.17953    6  237    2.57356    2.17953  15.3%   984   45s
   166   129    2.17953   10  407    2.57356    2.17953  15.3%   664   50s
   618   335    2.23032   18  326    2.57356    2.17953  15.3%   334   55s
  1466   671    2.35706   32  170    2.57356    2.17953  15.3%   235   60s
  2267  1010    2.18768    8  600    2.57356    2.17953  15.3%   217   65s
  3406  1515    2.44856   26   85    2.57356    2.17953  15.3%   212   70s
  4881  2003    2.32924   21  257    2.57356    2.17953  15.3%   210   75s
  6189  2331    2.48637   14  196    2.57356    2.17953  15.3%   208   82s
  6192  2333    2.47160   30  117    2.57356    2.17953  15.3%   208   86s
  6196  2336    2.36624   20  149    2.57356    2.17953  15.3%   208   92s
  6198  2337    2.46489   11   57    2.57356    2.17953  15.3%   208  112s
  6201  2344    2.17953   12  283    2.57356    2.17953  15.3%   213  115s
  6227  2372    2.17953   15  276    2.57356    2.17953  15.3%   215  120s
  6282  2386    2.17953   17  321    2.57356    2.17953  15.3%   220  141s
  6446  2389    2.19501   20  228    2.57356    2.17953  15.3%   225  145s
  6744  2338    2.42974   24  206    2.57356    2.17953  15.3%   227  150s
  7022  2283     cutoff   31         2.57356    2.17953  15.3%   228  155s
  7383  2239    2.17953   22  448    2.57356    2.17953  15.3%   228  160s
  7862  2195    2.19031   29  487    2.57356    2.17953  15.3%   224  165s
  8667  2170    2.21891   35  430    2.57356    2.17953  15.3%   220  170s
  8860  2134    2.22820   37  524    2.57356    2.17953  15.3%   221  178s
  8907  2192    2.22920   38  391    2.57356    2.17953  15.3%   221  180s
  9558  2246    2.31978   46  351    2.57356    2.17953  15.3%   221  185s
 10548  2317    2.48216   65   67    2.57356    2.17953  15.3%   224  191s
 11602  2171    2.35259   23  378    2.57356    2.20883  14.2%   223  196s
 13001  2069    2.46484   45  371    2.57356    2.20883  14.2%   219  215s
 13957  2195    2.32818   30  579    2.57356    2.27705  11.5%   218  221s
 14806  2304    2.37829   35  496    2.57356    2.27705  11.5%   216  226s
 15824  2500    2.41212   43  372    2.57356    2.27705  11.5%   215  230s
 17241  2692    2.50110   58  317    2.57356    2.32950  9.48%   212  235s
 18840  2625     cutoff   33         2.57356    2.35843  8.36%   212  240s
 20749  2476    2.51275   54  106    2.57356    2.38176  7.45%   211  245s
 22703  2141    2.48427   26  448    2.57356    2.40458  6.57%   210  250s
 25201   930     cutoff   42         2.57356    2.44350  5.05%   207  256s

Cutting planes:
  Learned: 348
  Gomory: 3
  Lift-and-project: 1
  Cover: 10
  Implied bound: 59
  Clique: 1
  MIR: 10
  Flow cover: 10
  Inf proof: 1
  Zero half: 14
  RLT: 134
  BQP: 4

Explored 28089 nodes (5705366 simplex iterations) in 258.93 seconds (272.46 work units)
Thread count was 28 (of 56 available processors)

Solution count 5: 2.57356 3.32945 7.00015 ... 38.5124

Optimal solution found (tolerance 1.00e-04)
Best objective 2.573564000000e+00, best bound 2.573564000000e+00, gap 0.0000%

Solver Wallclock Time (for this epsilon): 258.9363420009613 s
Python wallclock Time (for this epsilon): 267.47984504699707 s


Total Elapsed Time (since program call): 1532.4527232646942 s

Results:

I = 2.5735639999999997 mA
C = 91.0 points
C ~= 36.4 km^2

Minimum Epsilon for this instance = 10
Maximum Epsilon for this instance = 100

Current Epsilon = 90


Preprocessing Time (for this epsilon): 0.011875629425048828 s


Updated solution vectors:
sol_I = [-1.223564,-1.223564,-1.6735639999999998,-1.6735639999999998,-1.6735639999999998,-1.6735639999999998,-2.123564,-2.123564,-2.5735639999999997]
sol_C = [24.0,20.0,39.0,53.0,58.0,61.0,79.0,80.0,91.0]
sol_eps = [10,20,30,40,50,60,70,80,90]
sol_gap = [0.0,0.0,0.0,0.0,2.924999964459829e-07,1.7999999935014444e-07,0.0,0.0,0.0]
